MLW07
Position Depot: Center
Horizon for Depot: Large
Position of customers: Mixt
Distribution of the demand: Medium
Width of time windows: Wide
Distribution of the service: Large

VEHICLE 
NUMBER 	 CAPACITY 
 5 	 	 202 
 
CUSTOMER
CUST NO. 	 XCOORD.  	 YCOORD. 	 DEMAND 	 READY TIME 	 DUE DATE 	 SERVICE TIME 
 0 	 	 500 	 	 500 	 	 0 	 	 0 	 	 3821 	 	 0 
  1 	 	 613 	 	 24 	 	 100 	 	 2576 	 	 2889 	 	 163 
  2 	 	 438 	 	 72 	 	 6 	 	 293 	 	 744 	 	 135 
  3 	 	 757 	 	 420 	 	 56 	 	 1410 	 	 1703 	 	 105 
  4 	 	 584 	 	 575 	 	 1 	 	 644 	 	 1014 	 	 126 
  5 	 	 491 	 	 490 	 	 7 	 	 2466 	 	 2718 	 	 103 
  6 	 	 403 	 	 85 	 	 7 	 	 1675 	 	 2073 	 	 120 
  7 	 	 548 	 	 592 	 	 10 	 	 1706 	 	 1951 	 	 144 
  8 	 	 486 	 	 154 	 	 4 	 	 1527 	 	 1984 	 	 106 
  9 	 	 713 	 	 563 	 	 2 	 	 1171 	 	 1641 	 	 164 
  10 	 	 365 	 	 132 	 	 8 	 	 2934 	 	 3210 	 	 115 
  11 	 	 601 	 	 670 	 	 5 	 	 492 	 	 876 	 	 121 
  12 	 	 476 	 	 41 	 	 51 	 	 1802 	 	 2169 	 	 133 
  13 	 	 757 	 	 424 	 	 5 	 	 1955 	 	 2243 	 	 133 
  14 	 	 743 	 	 466 	 	 76 	 	 3093 	 	 3418 	 	 169 
  15 	 	 767 	 	 531 	 	 99 	 	 3348 	 	 3631 	 	 153 
  16 	 	 625 	 	 575 	 	 6 	 	 2754 	 	 3213 	 	 117 
  17 	 	 478 	 	 397 	 	 1 	 	 2261 	 	 2590 	 	 200 
  18 	 	 638 	 	 95 	 	 3 	 	 1024 	 	 1253 	 	 168 
  19 	 	 560 	 	 613 	 	 3 	 	 2315 	 	 2605 	 	 184 
  20 	 	 759 	 	 420 	 	 76 	 	 2894 	 	 3295 	 	 127 
  21 	 	 418 	 	 3 	 	 2 	 	 840 	 	 1238 	 	 151 
  22 	 	 633 	 	 563 	 	 10 	 	 2617 	 	 2975 	 	 144 
  23 	 	 578 	 	 95 	 	 1 	 	 1624 	 	 2080 	 	 107 
  24 	 	 714 	 	 466 	 	 6 	 	 876 	 	 1165 	 	 105 
  25 	 	 712 	 	 495 	 	 7 	 	 1727 	 	 2175 	 	 141 
  26 	 	 719 	 	 385 	 	 89 	 	 3509 	 	 3821 	 	 113 
  27 	 	 261 	 	 852 	 	 9 	 	 2881 	 	 3206 	 	 182 
  28 	 	 136 	 	 830 	 	 10 	 	 453 	 	 677 	 	 161 
  29 	 	 455 	 	 11 	 	 1 	 	 1843 	 	 2127 	 	 175 
  30 	 	 433 	 	 703 	 	 84 	 	 1185 	 	 1669 	 	 147 
  31 	 	 728 	 	 76 	 	 7 	 	 334 	 	 630 	 	 153 
  32 	 	 418 	 	 648 	 	 8 	 	 1290 	 	 1516 	 	 173 
  33 	 	 459 	 	 257 	 	 2 	 	 3248 	 	 3696 	 	 117 
  34 	 	 533 	 	 638 	 	 2 	 	 -44 	 	 410 	 	 108 
  35 	 	 315 	 	 60 	 	 4 	 	 3451 	 	 3808 	 	 141 
  36 	 	 654 	 	 968 	 	 4 	 	 1271 	 	 1688 	 	 186 
  37 	 	 132 	 	 740 	 	 58 	 	 2433 	 	 2747 	 	 103 
  38 	 	 879 	 	 257 	 	 7 	 	 1945 	 	 2266 	 	 149 
  39 	 	 347 	 	 533 	 	 59 	 	 2788 	 	 3039 	 	 115 
  40 	 	 170 	 	 893 	 	 55 	 	 2180 	 	 2569 	 	 111 
  41 	 	 770 	 	 920 	 	 4 	 	 813 	 	 1150 	 	 152 
  42 	 	 926 	 	 263 	 	 2 	 	 333 	 	 536 	 	 163 
  43 	 	 860 	 	 330 	 	 4 	 	 3384 	 	 3821 	 	 174 
  44 	 	 647 	 	 683 	 	 3 	 	 2527 	 	 2995 	 	 171 
  45 	 	 950 	 	 979 	 	 9 	 	 2423 	 	 2846 	 	 142 
  46 	 	 941 	 	 608 	 	 3 	 	 856 	 	 1172 	 	 109 
  47 	 	 538 	 	 146 	 	 10 	 	 2053 	 	 2343 	 	 173 
  48 	 	 203 	 	 640 	 	 6 	 	 2511 	 	 2829 	 	 150 
  49 	 	 897 	 	 724 	 	 9 	 	 2306 	 	 2728 	 	 127 
  50 	 	 147 	 	 727 	 	 9 	 	 3333 	 	 3612 	 	 158 
 